91 66 
55 33 
46 72 
30 70 
39 30 
68 65 
77 60 
1 39 
4 10 
37 25 
94 60 
20 6 
31 62 
87 85 
44 89 
98 87 
7 6 
20 54 
78 2 
76 69 
32 96 
86 62 
57 88 
53 13 
50 91 
39 96 
3 59 
3 34 
73 42 
71 69 
31 70 
56 39 
28 29 
45 58 
31 73 
27 16 
69 65 
78 78 
5 83 
92 56 
74 83 
4 30 
94 7 
16 67 
50 88 
36 81 
10 92 
72 38 
21 17 
96 53 
